MARKOV
229
 2 2 2 2 2 2 2 2 2 2 2 2 2 2 2 2 2 2 2 2 2 2 2 2 2 2 2 2 2 2 2 2 2 2 2 2 2 2 2 2 2 2 2 2 2 2 2 2 2 2 2 2 2 2 2 2 2 2 2 2 2 2 2 2 2 2 2 2 2 2 2 2 2 2 2 2 2 2 2 2 2 2 2 2 2 2 2 2 2 2 2 2 2 2 2 2 2 2 2 2 2 2 2 2 2 2 2 2 2 2 2 2 2 2 2 2 2 2 2 2 2 2 2 2 2 2 2 2 2 2 2 2 2 2 2 2 2 2 2 2 2 2 2 2 2 2 2 2 2 2 2 2 2 2 2 2 2 2 2 2 2 2 2 2 2 2 2 2 2 2 2 2 2 2 2 2 2 2 2 2 2 2 2 2 2 2 2 2 2 2 2 2 2 2 2 2 2 2 2 2 2 2 2 2 2 2 2 2 2 2 2 2 2 2 2 2 2 2 2 2 2 2 2 2 2 2 2 2 2
851
1	0 
1	1 
1	2 
1	3 
1	4 
1	5 
1	6 
1	7 
1	8 
1	9 
1	10 
1	11 
1	12 
1	13 
1	14 
1	15 
1	16 
1	17 
1	18 
1	19 
1	20 
1	21 
1	22 
1	23 
1	24 
1	25 
1	26 
1	27 
1	28 
1	29 
1	30 
1	31 
1	32 
1	33 
1	34 
1	35 
1	36 
1	37 
1	38 
1	39 
1	40 
1	41 
1	42 
1	43 
1	44 
1	45 
1	46 
1	47 
1	48 
1	49 
1	50 
1	51 
1	52 
1	53 
1	54 
1	55 
1	56 
1	57 
1	58 
1	59 
1	60 
1	61 
1	62 
1	63 
1	64 
1	65 
1	66 
1	67 
1	68 
1	69 
1	70 
1	71 
1	72 
1	73 
1	74 
1	75 
1	76 
1	77 
1	78 
1	79 
1	80 
1	81 
1	82 
1	83 
1	84 
1	85 
1	86 
1	87 
1	88 
1	89 
1	90 
1	91 
1	92 
1	93 
1	94 
1	95 
1	96 
1	97 
1	98 
1	99 
1	100 
1	101 
1	102 
1	103 
1	104 
1	105 
1	106 
1	107 
1	108 
1	109 
1	110 
1	111 
1	112 
1	113 
1	114 
1	115 
1	116 
1	117 
1	118 
1	119 
1	120 
1	121 
1	122 
1	123 
1	124 
1	125 
1	126 
1	127 
1	128 
1	129 
1	130 
1	131 
1	132 
1	133 
1	134 
1	135 
1	136 
1	137 
1	138 
1	139 
1	140 
1	141 
1	142 
1	143 
1	144 
1	145 
1	146 
1	147 
1	148 
1	149 
1	150 
1	151 
1	152 
1	153 
1	154 
1	155 
1	156 
1	157 
1	158 
1	159 
1	160 
1	161 
1	162 
1	163 
1	164 
1	165 
1	166 
1	167 
1	168 
1	169 
1	170 
1	171 
1	172 
1	173 
1	174 
1	175 
1	176 
1	177 
1	178 
1	179 
1	180 
1	181 
1	182 
1	183 
1	184 
1	185 
1	186 
1	187 
1	188 
1	189 
1	190 
1	191 
1	192 
1	193 
1	194 
1	195 
1	196 
1	197 
1	198 
1	199 
1	200 
1	201 
1	202 
1	203 
1	204 
1	205 
1	206 
1	207 
1	208 
1	209 
1	210 
1	211 
1	212 
1	213 
1	214 
1	215 
1	216 
1	217 
1	218 
1	219 
1	220 
1	221 
1	222 
1	223 
1	224 
1	225 
1	226 
1	227 
1	228 
2	1 2 
2	1 39 
2	1 43 
2	2 40 
2	2 43 
2	3 6 
2	3 7 
2	3 150 
2	3 154 
2	3 225 
2	3 226 
2	3 228 
2	4 6 
2	4 8 
2	4 84 
2	4 85 
2	4 86 
2	4 99 
2	4 100 
2	5 7 
2	5 8 
2	5 150 
2	5 151 
2	5 195 
2	5 197 
2	6 7 
2	6 8 
2	6 85 
2	6 226 
2	7 8 
2	7 150 
2	8 100 
2	8 195 
2	9 11 
2	9 13 
2	9 31 
2	9 181 
2	10 13 
2	10 14 
2	10 179 
2	10 188 
2	10 192 
2	10 193 
2	11 12 
2	11 13 
2	11 14 
2	12 14 
2	12 186 
2	12 187 
2	13 14 
2	13 179 
2	13 181 
2	14 187 
2	14 188 
2	15 16 
2	15 17 
2	15 19 
2	15 65 
2	15 88 
2	15 130 
2	16 18 
2	16 19 
2	16 130 
2	16 132 
2	17 85 
2	17 87 
2	17 88 
2	17 130 
2	17 131 
2	17 134 
2	18 19 
2	18 66 
2	18 67 
2	18 133 
2	19 65 
2	19 67 
2	20 23 
2	20 24 
2	20 26 
2	20 60 
2	20 69 
2	21 22 
2	21 25 
2	21 37 
2	21 120 
2	21 122 
2	21 124 
2	22 23 
2	22 25 
2	22 26 
2	22 36 
2	22 37 
2	23 25 
2	23 26 
2	23 58 
2	23 192 
2	23 193 
2	24 60 
2	24 69 
2	24 70 
2	24 74 
2	24 104 
2	25 124 
2	25 191 
2	25 192 
2	26 36 
2	26 69 
2	26 72 
2	27 28 
2	27 42 
2	27 216 
2	28 29 
2	28 142 
2	28 215 
2	28 216 
2	29 32 
2	29 142 
2	29 144 
2	29 217 
2	30 31 
2	30 33 
2	30 219 
2	30 221 
2	31 181 
2	31 221 
2	32 33 
2	32 220 
2	33 219 
2	33 220 
2	34 35 
2	34 109 
2	34 178 
2	35 107 
2	35 109 
2	36 37 
2	36 72 
2	36 211 
2	36 213 
2	37 120 
2	37 213 
2	38 39 
2	38 41 
2	38 42 
2	38 44 
2	39 43 
2	39 44 
2	40 43 
2	40 90 
2	40 145 
2	41 42 
2	41 44 
2	41 93 
2	41 198 
2	42 198 
2	42 199 
2	42 216 
2	43 44 
2	43 90 
2	44 90 
2	44 93 
2	45 46 
2	45 47 
2	45 131 
2	45 134 
2	45 164 
2	46 86 
2	46 134 
2	47 129 
2	47 130 
2	47 131 
2	47 163 
2	47 164 
2	48 50 
2	48 51 
2	48 66 
2	48 67 
2	48 200 
2	48 227 
2	49 50 
2	49 52 
2	49 68 
2	49 102 
2	49 103 
2	49 202 
2	50 51 
2	50 52 
2	50 66 
2	50 68 
2	51 52 
2	51 200 
2	52 200 
2	52 202 
2	53 54 
2	53 55 
2	53 56 
2	53 116 
2	53 119 
2	53 168 
2	53 169 
2	54 56 
2	54 108 
2	54 110 
2	54 119 
2	55 56 
2	55 168 
2	56 110 
2	57 58 
2	57 59 
2	57 60 
2	57 104 
2	57 160 
2	58 60 
2	58 160 
2	58 193 
2	59 61 
2	59 104 
2	59 160 
2	59 162 
2	59 207 
2	60 104 
2	61 158 
2	61 162 
2	61 207 
2	61 208 
2	62 63 
2	62 64 
2	62 127 
2	62 166 
2	62 223 
2	63 64 
2	63 128 
2	63 173 
2	63 205 
2	63 206 
2	64 166 
2	64 173 
2	64 174 
2	64 176 
2	65 67 
2	65 83 
2	65 88 
2	65 227 
2	66 67 
2	66 68 
2	66 102 
2	66 133 
2	66 210 
2	67 227 
2	68 102 
2	69 71 
2	69 72 
2	69 74 
2	70 73 
2	70 74 
2	70 104 
2	70 105 
2	70 125 
2	70 201 
2	71 72 
2	71 74 
2	71 77 
2	71 98 
2	72 97 
2	72 98 
2	72 211 
2	73 105 
2	73 106 
2	73 201 
2	73 202 
2	74 77 
2	74 78 
2	74 125 
2	75 76 
2	75 77 
2	75 78 
2	75 79 
2	75 80 
2	75 82 
2	76 78 
2	76 79 
2	76 81 
2	77 78 
2	77 82 
2	77 98 
2	78 81 
2	78 125 
2	79 80 
2	79 81 
2	79 172 
2	79 204 
2	80 82 
2	80 116 
2	80 169 
2	80 172 
2	81 126 
2	81 128 
2	81 204 
2	81 205 
2	82 95 
2	82 98 
2	82 116 
2	82 117 
2	83 88 
2	83 225 
2	83 226 
2	83 227 
2	84 85 
2	84 86 
2	84 87 
2	85 87 
2	85 88 
2	85 226 
2	86 87 
2	86 99 
2	86 134 
2	87 134 
2	88 226 
2	89 92 
2	89 137 
2	89 157 
2	89 214 
2	90 93 
2	90 145 
2	90 147 
2	91 92 
2	91 94 
2	91 135 
2	91 136 
2	91 199 
2	91 215 
2	92 136 
2	92 137 
2	92 214 
2	92 215 
2	93 94 
2	93 147 
2	93 148 
2	93 198 
2	94 135 
2	94 139 
2	94 148 
2	94 198 
2	95 96 
2	95 97 
2	95 98 
2	95 116 
2	95 117 
2	95 118 
2	96 97 
2	96 113 
2	96 118 
2	96 213 
2	97 98 
2	97 211 
2	97 213 
2	99 100 
2	99 101 
2	100 101 
2	100 194 
2	100 195 
2	101 194 
2	102 103 
2	102 210 
2	103 106 
2	103 202 
2	103 208 
2	103 209 
2	103 210 
2	104 105 
2	104 207 
2	105 106 
2	105 207 
2	106 202 
2	106 207 
2	106 208 
2	107 108 
2	107 109 
2	107 110 
2	108 109 
2	108 110 
2	108 112 
2	108 119 
2	109 112 
2	109 177 
2	109 178 
2	111 113 
2	111 114 
2	111 115 
2	111 177 
2	112 115 
2	112 118 
2	112 119 
2	113 114 
2	113 115 
2	113 118 
2	113 212 
2	113 213 
2	114 212 
2	115 118 
2	115 177 
2	116 117 
2	116 119 
2	116 169 
2	117 118 
2	117 119 
2	118 119 
2	120 121 
2	120 122 
2	120 213 
2	121 212 
2	121 213 
2	122 123 
2	122 124 
2	123 124 
2	123 182 
2	123 183 
2	124 182 
2	124 191 
2	125 126 
2	125 201 
2	126 128 
2	126 201 
2	126 202 
2	127 128 
2	127 200 
2	127 223 
2	128 200 
2	128 202 
2	128 205 
2	129 130 
2	129 132 
2	129 139 
2	129 148 
2	129 163 
2	130 131 
2	130 132 
2	131 134 
2	132 133 
2	132 135 
2	132 136 
2	132 139 
2	133 136 
2	133 138 
2	133 210 
2	135 136 
2	135 139 
2	136 137 
2	136 138 
2	137 138 
2	137 157 
2	137 161 
2	138 161 
2	138 210 
2	139 148 
2	140 141 
2	140 143 
2	140 156 
2	140 157 
2	140 158 
2	140 159 
2	140 218 
2	141 143 
2	141 144 
2	141 156 
2	141 217 
2	141 220 
2	142 144 
2	142 214 
2	142 215 
2	142 216 
2	143 144 
2	143 157 
2	143 214 
2	144 214 
2	144 217 
2	145 146 
2	145 147 
2	145 149 
2	146 147 
2	146 148 
2	146 149 
2	146 163 
2	146 164 
2	147 148 
2	148 163 
2	149 164 
2	150 151 
2	150 153 
2	150 154 
2	151 153 
2	151 197 
2	152 155 
2	152 165 
2	152 166 
2	152 176 
2	153 154 
2	153 155 
2	154 155 
2	154 165 
2	154 228 
2	155 165 
2	156 158 
2	156 162 
2	156 219 
2	156 220 
2	157 159 
2	157 161 
2	157 214 
2	157 218 
2	158 159 
2	158 162 
2	158 208 
2	159 161 
2	159 208 
2	159 209 
2	159 218 
2	160 162 
2	160 179 
2	160 180 
2	160 193 
2	160 222 
2	161 209 
2	161 210 
2	162 180 
2	162 219 
2	162 221 
2	163 164 
2	165 166 
2	165 224 
2	165 228 
2	166 176 
2	166 223 
2	166 224 
2	167 168 
2	167 170 
2	167 171 
2	167 175 
2	168 169 
2	168 170 
2	169 170 
2	169 172 
2	170 171 
2	170 172 
2	170 203 
2	171 175 
2	171 203 
2	171 206 
2	172 203 
2	172 204 
2	173 174 
2	173 175 
2	173 206 
2	174 176 
2	175 206 
2	177 178 
2	179 180 
2	179 181 
2	179 193 
2	179 222 
2	180 181 
2	180 221 
2	180 222 
2	181 221 
2	182 183 
2	182 188 
2	182 189 
2	182 190 
2	182 191 
2	183 189 
2	184 185 
2	184 186 
2	184 189 
2	185 186 
2	185 187 
2	185 189 
2	185 190 
2	186 187 
2	187 188 
2	187 190 
2	188 190 
2	188 191 
2	188 192 
2	189 190 
2	191 192 
2	192 193 
2	194 195 
2	194 196 
2	194 197 
2	195 197 
2	196 197 
2	198 199 
2	198 216 
2	199 215 
2	199 216 
2	200 202 
2	200 223 
2	200 227 
2	201 202 
2	203 204 
2	203 205 
2	203 206 
2	204 205 
2	205 206 
2	207 208 
2	208 209 
2	209 210 
2	211 213 
2	212 213 
2	214 215 
2	215 216 
2	217 220 
2	219 220 
2	219 221 
2	223 224 
2	223 227 
2	224 227 
2	224 228 
2	225 226 
2	225 227 
2	225 228 
2	227 228 
0	

2
 0.252912 1
2
 0.366588 1
2
 0.127646 1
2
 1 0.707983
2
 1 0.507556
2
 1 0.238471
2
 1 0.631346
2
 1 0.240034
2
 1 0.379652
2
 1 0.0873624
2
 1 0.471627
2
 1 0.0858223
2
 1 0.0898769
2
 1 0.141223
2
 1 0.0900466
2
 0.904125 1
2
 1 0.234039
2
 0.590871 1
2
 1 0.342343
2
 1 0.434817
2
 0.326115 1
2
 0.240839 1
2
 0.495395 1
2
 0.706101 1
2
 0.0537231 1
2
 0.918265 1
2
 0.295924 1
2
 1 0.709357
2
 1 0.250249
2
 1 0.646204
2
 1 0.274607
2
 1 0.347639
2
 1 0.520388
2
 1 0.311466
2
 1 0.174785
2
 1 0.193562
2
 0.114073 1
2
 0.345183 1
2
 1 0.22692
2
 0.76965 1
2
 0.278213 1
2
 1 0.505912
2
 1 0.996182
2
 0.482761 1
2
 1 0.564461
2
 1 0.471785
2
 0.666649 1
2
 0.790707 1
2
 1 0.478253
2
 0.197479 1
2
 0.700796 1
2
 1 0.464694
2
 0.582104 1
2
 1 0.696085
2
 0.950502 1
2
 1 0.164654
2
 1 0.113138
2
 0.0815695 1
2
 0.0741594 1
2
 0.107204 1
2
 0.078454 1
2
 0.287164 1
2
 1 0.548333
2
 1 0.21641
2
 1 0.257065
2
 0.440636 1
2
 0.642913 1
2
 0.701498 1
2
 1 0.604633
2
 0.121882 1
2
 0.00815547 1
2
 1 0.960508
2
 0.13352 1
2
 0.251925 1
2
 0.256358 1
2
 0.416488 1
2
 0.422037 1
2
 0.0585255 1
2
 0.164231 1
2
 0.135586 1
2
 0.150286 1
2
 0.209147 1
2
 0.0671597 1
2
 0.714589 1
2
 1 0.775371
2
 0.229041 1
2
 0.938073 1
2
 0.195448 1
2
 0.176937 1
2
 0.180224 1
2
 1 0.923998
2
 0.240452 1
2
 0.216652 1
2
 0.382428 1
2
 0.71256 1
2
 0.0839349 1
2
 0.0527385 1
2
 0.213724 1
2
 0.0294691 1
2
 1 0.63746
2
 1 0.361069
2
 1 0.19594
2
 1 0.674678
2
 1 0.323817
2
 0.486355 1
2
 1 0.697216
2
 1 0.334448
2
 1 0.352072
2
 1 0.876095
2
 1 0.181428
2
 0.858493 1
2
 0.0786942 1
2
 0.181905 1
2
 0.344883 1
2
 1 0.579829
2
 0.213264 1
2
 0.0816627 1
2
 0.12575 1
2
 0.0179912 1
2
 0.26035 1
2
 1 0.139877
2
 1 0.125612
2
 1 0.138691
2
 1 0.120293
2
 0.948201 1
2
 0.972245 1
2
 0.596961 1
2
 0.246918 1
2
 0.164948 1
2
 1 0.380199
2
 1 0.887994
2
 1 0.965403
2
 1 0.865521
2
 0.332619 1
2
 0.250807 1
2
 0.0432918 1
2
 0.0893318 1
2
 0.0255519 1
2
 0.0897191 1
2
 0.102392 1
2
 0.0990747 1
2
 0.131444 1
2
 0.589242 1
2
 0.0744559 1
2
 0.206222 1
2
 1 0.384391
2
 1 0.773462
2
 1 0.925737
2
 0.0569394 1
2
 1 0.783891
2
 1 0.362943
2
 1 0.196897
2
 1 0.287105
2
 1 0.343047
2
 1 0.387423
2
 1 0.259229
2
 1 0.592748
2
 0.0648945 1
2
 0.126893 1
2
 0.0873717 1
2
 0.233481 1
2
 0.4662 1
2
 1 0.644611
2
 0.884167 1
2
 1 0.621414
2
 1 0.238455
2
 1 0.623178
2
 1 0.147039
2
 1 0.158313
2
 0.896087 1
2
 1 0.402915
2
 1 0.628359
2
 1 0.416014
2
 1 0.21587
2
 1 0.276747
2
 1 0.115822
2
 1 0.245449
2
 0.238602 1
2
 1 0.520208
2
 0.832673 1
2
 0.554361 1
2
 0.93555 1
2
 1 0.125048
2
 1 0.0387097
2
 1 0.0482648
2
 1 0.106715
2
 1 0.105002
2
 1 0.109604
2
 1 0.178746
2
 1 0.0369144
2
 1 0.104327
2
 0.257793 1
2
 0.402074 1
2
 0.369709 1
2
 1 0.465373
2
 1 0.272996
2
 1 0.373565
2
 1 0.23159
2
 0.654976 1
2
 1 0.872914
2
 0.259143 1
2
 0.418993 1
2
 0.0827755 1
2
 1 0.506436
2
 1 0.559921
2
 1 0.366099
2
 1 0.205699
2
 0.176969 1
2
 0.167457 1
2
 0.33271 1
2
 0.462452 1
2
 0.21126 1
2
 1 0.199938
2
 1 0.934366
2
 0.113647 1
2
 0.311492 1
2
 1 0.677867
2
 0.328904 1
2
 0.0486547 1
2
 1 0.831735
2
 0.828005 1
2
 0.197745 1
2
 0.433949 1
2
 0.643009 1
2
 1 0.470486
2
 0.223285 1
2
 0.357925 1
2
 0.101816 1
2
 1 0.303049
4
 0.954173 0.299599 0.299599 1
4
 0.950377 0.294254 0.294254 1
4
 0.95487 0.298415 0.298415 1
4
 0.961326 0.305188 0.305188 1
4
 0.958146 0.30142 0.30142 1
4
 1 0.338085 0.338085 0.967434
4
 1 0.3394 0.3394 0.962719
4
 1 0.339813 0.339813 0.959696
4
 1 0.336952 0.336952 0.961692
4
 1 0.332928 0.332928 0.970589
4
 1 0.335156 0.335156 0.970589
4
 1 0.333846 0.333846 0.966673
4
 1 0.34268 0.34268 0.968522
4
 1 0.346196 0.346196 0.964289
4
 1 0.343441 0.343441 0.972228
4
 1 0.340421 0.340421 0.974523
4
 1 0.345055 0.345055 0.972938
4
 1 0.348209 0.348209 0.966838
4
 1 0.348074 0.348074 0.964236
4
 1 0.346151 0.346151 0.955074
4
 1 0.348347 0.348347 0.955557
4
 1 0.346572 0.346572 0.952075
4
 1 0.350271 0.350271 0.947861
4
 1 0.351324 0.351324 0.951168
4
 1 0.35329 0.35329 0.946745
4
 1 0.341436 0.341436 0.963693
4
 1 0.343603 0.343603 0.964181
4
 1 0.337871 0.337871 0.974413
4
 1 0.337166 0.337166 0.971571
4
 1 0.344939 0.344939 0.959482
4
 1 0.343181 0.343181 0.955985
4
 1 0.349012 0.349012 0.959914
4
 1 0.350094 0.350094 0.955557
4
 0.928027 0.240807 0.240807 1
4
 0.932676 0.243966 0.243966 1
4
 0.930531 0.245421 0.245421 1
4
 0.932624 0.245484 0.245484 1
4
 0.940143 0.246252 0.246252 1
4
 0.93872 0.243993 0.243993 1
4
 0.944429 0.249386 0.249386 1
4
 0.942999 0.245456 0.245456 1
4
 0.94783 0.249738 0.249738 1
4
 0.947936 0.251224 0.251224 1
4
 0.926674 0.237122 0.237122 1
4
 0.932258 0.242251 0.242251 1
4
 0.930846 0.240028 0.240028 1
4
 0.929906 0.238028 0.238028 1
4
 0.924492 0.232925 0.232925 1
4
 0.929489 0.236355 0.236355 1
4
 0.935509 0.243177 0.243177 1
4
 0.941199 0.248552 0.248552 1
4
 0.936875 0.246956 0.246956 1
4
 0.933673 0.239252 0.239252 1
4
 0.938351 0.242391 0.242391 1
4
 1 0.322035 0.322035 0.999684
4
 1 0.327956 0.327956 0.993083
4
 1 0.323197 0.323197 0.995762
4
 1 0.325129 0.325129 0.990854
4
 1 0.328415 0.328415 0.988354
4
 1 0.324322 0.324322 0.999628
4
 0.995107 0.31474 0.31474 1
4
 0.999082 0.319391 0.319391 1
4
 0.995218 0.319263 0.319263 1
4
 0.990813 0.313446 0.313446 1
4
 1 0.33299 0.33299 0.986026
4
 1 0.333915 0.333915 0.987911
4
 1 0.330819 0.330819 0.986912
4
 1 0.326696 0.326696 0.99817
4
 1 0.330204 0.330204 0.994199
4
 1 0.333887 0.333887 0.990188
4
 0.999026 0.31712 0.31712 1
4
 0.997961 0.313285 0.313285 1
4
 1 0.316897 0.316897 0.998
4
 0.991204 0.309269 0.309269 1
4
 1 0.322756 0.322756 0.992078
4
 1 0.3203 0.3203 0.99403
4
 0.966533 0.26344 0.26344 1
4
 0.974488 0.271335 0.271335 1
4
 0.971975 0.266481 0.266481 1
4
 0.970175 0.268174 0.268174 1
4
 0.975967 0.27067 0.27067 1
4
 0.964853 0.256658 0.256658 1
4
 0.960421 0.253737 0.253737 1
4
 0.966318 0.256029 0.256029 1
4
 0.963555 0.252544 0.252544 1
4
 0.959559 0.250183 0.250183 1
4
 0.956654 0.249742 0.249742 1
4
 0.964636 0.259621 0.259621 1
4
 0.963283 0.257049 0.257049 1
4
 0.970068 0.262617 0.262617 1
4
 0.971267 0.261802 0.261802 1
4
 0.969197 0.259371 0.259371 1
4
 0.960204 0.256666 0.256666 1
4
 0.966967 0.262226 0.262226 1
4
 0.960527 0.260404 0.260404 1
4
 0.956921 0.255808 0.255808 1
4
 0.957028 0.25733 0.25733 1
4
 0.973121 0.2718 0.2718 1
4
 0.978931 0.27433 0.27433 1
4
 0.982233 0.280215 0.280215 1
4
 0.982675 0.278924 0.278924 1
4
 0.976679 0.276427 0.276427 1
4
 0.955097 0.250123 0.250123 1
4
 0.954614 0.251163 0.251163 1
4
 0.955579 0.253274 0.253274 1
4
 0.973615 0.26443 0.26443 1
4
 0.976406 0.269423 0.269423 1
4
 0.977504 0.268784 0.268784 1
4
 0.941141 0.271389 0.271389 1
4
 0.943574 0.277255 0.277255 1
4
 0.944847 0.27619 0.27619 1
4
 0.93961 0.266419 0.266419 1
4
 0.944105 0.271215 0.271215 1
4
 0.947078 0.27468 0.27468 1
4
 0.944211 0.273739 0.273739 1
4
 0.937293 0.26146 0.26146 1
4
 0.943205 0.268631 0.268631 1
4
 0.943364 0.267218 0.267218 1
4
 0.940772 0.264707 0.264707 1
4
 0.933199 0.250056 0.250056 1
4
 0.934456 0.253706 0.253706 1
4
 0.939244 0.255989 0.255989 1
4
 0.938506 0.253905 0.253905 1
4
 0.93472 0.248429 0.248429 1
4
 0.937927 0.252189 0.252189 1
4
 0.935506 0.25736 0.25736 1
4
 0.940192 0.261171 0.261171 1
4
 0.939929 0.257971 0.257971 1
4
 0.939823 0.259456 0.259456 1
4
 1 0.284045 0.284045 0.973526
4
 1 0.283379 0.283379 0.977415
4
 1 0.280957 0.280957 0.978567
4
 1 0.287512 0.287512 0.971015
4
 1 0.284978 0.284978 0.975989
4
 0.972741 0.26116 0.26116 1
4
 0.978712 0.26795 0.26795 1
4
 0.978493 0.266118 0.266118 1
4
 0.976792 0.263186 0.263186 1
4
 0.967893 0.255213 0.255213 1
4
 0.97471 0.260742 0.260742 1
4
 0.948512 0.289022 0.289022 1
4
 0.951179 0.288513 0.288513 1
4
 0.946279 0.283434 0.283434 1
4
 0.952087 0.290802 0.290802 1
4
 0.954335 0.296042 0.296042 1
4
 0.953424 0.293712 0.293712 1
4
 0.962028 0.303981 0.303981 1
4
 0.965383 0.305652 0.305652 1
4
 0.96913 0.310397 0.310397 1
4
 0.950272 0.285765 0.285765 1
4
 0.956106 0.293194 0.293194 1
4
 0.959817 0.294782 0.294782 1
4
 0.954926 0.289244 0.289244 1
4
 0.950006 0.284152 0.284152 1
4
 0.949473 0.282363 0.282363 1
4
 0.946652 0.279656 0.279656 1
4
 0.957932 0.297865 0.297865 1
4
 0.962191 0.301879 0.301879 1
4
 0.961273 0.299502 0.299502 1
4
 0.960734 0.297121 0.297121 1
4
 1 0.33674 0.33674 0.994256
4
 0.998462 0.330183 0.330183 1
4
 1 0.332021 0.332021 0.997555
4
 1 0.335723 0.335723 0.993531
4
 0.996837 0.331238 0.331238 1
4
 1 0.342162 0.342162 0.983705
4
 1 0.338476 0.338476 0.989467
4
 0.990867 0.319929 0.319929 1
4
 0.995272 0.3237 0.3237 1
4
 0.999248 0.328483 0.328483 1
4
 0.991646 0.323094 0.323094 1
4
 0.993652 0.326907 0.326907 1
4
 1 0.314475 0.314475 0.991074
4
 1 0.315502 0.315502 0.987685
4
 1 0.315995 0.315995 0.99269
4
 1 0.318986 0.318986 0.988685
4
 1 0.316195 0.316195 0.98558
4
 1 0.321224 0.321224 0.982321
4
 0.99987 0.307326 0.307326 1
4
 0.999478 0.304799 0.304799 1
4
 0.996787 0.305621 0.305621 1
4
 0.993546 0.302997 0.302997 1
4
 0.992041 0.299717 0.299717 1
4
 0.997628 0.302167 0.302167 1
4
 1 0.311798 0.311798 0.992466
4
 1 0.308349 0.308349 0.996262
4
 1 0.312285 0.312285 0.997495
4
 1 0.310015 0.310015 0.998952
4
 1 0.309356 0.309356 0.992856
4
 1 0.313503 0.313503 0.986964
4
 1 0.310035 0.310035 0.990739
4
 1 0.303855 0.303855 0.998502
4
 1 0.294151 0.294151 0.975991
4
 1 0.298479 0.298479 0.970472
4
 1 0.296402 0.296402 0.97118
4
 1 0.293519 0.293519 0.981212
4
 1 0.292365 0.292365 0.979945
4
 1 0.300211 0.300211 0.970146
4
 1 0.296792 0.296792 0.977253
4
 1 0.294321 0.294321 0.971453
4
 1 0.289726 0.289726 0.977801
4
 1 0.292183 0.292183 0.972872
4
 1 0.290313 0.290313 0.98022
4
 1 0.298652 0.298652 0.965959
4
 1 0.30249 0.30249 0.96493
4
 1 0.294419 0.294419 0.968076
4
 0.96274 0.265415 0.265415 1
4
 0.966042 0.270783 0.270783 1
4
 0.9674 0.26897 0.26897 1
4
 0.970937 0.273549 0.273549 1
4
 0.960094 0.265122 0.265122 1
4
 0.964147 0.265084 0.265084 1
4
 0.956866 0.261291 0.261291 1
4
 0.956007 0.258491 0.258491 1
4
 0.967073 0.274555 0.274555 1
4
 0.970991 0.275049 0.275049 1
4
 0.960148 0.266575 0.266575 1
4
 0.960687 0.268712 0.268712 1
4
 0.97001 0.276419 0.276419 1
4
 0.972356 0.273207 0.273207 1
4
 0.965499 0.275892 0.275892 1
4
 0.961658 0.27097 0.27097 1
4
 0.97099 0.278742 0.278742 1
4
 0.971972 0.281084 0.281084 1
4
 1 0.316399 0.316399 0.972932
4
 1 0.319535 0.319535 0.96917
4
 1 0.316215 0.316215 0.977477
4
 1 0.322543 0.322543 0.967702
4
 1 0.319621 0.319621 0.973807
4
 1 0.318289 0.318289 0.968136
4
 1 0.311928 0.311928 0.97819
4
 1 0.317715 0.317715 0.964392
4
 1 0.31263 0.31263 0.973642
4
 1 0.314884 0.314884 0.968679
4
 1 0.32447 0.32447 0.962932
4
 1 0.320864 0.320864 0.960663
4
 1 0.32298 0.32298 0.960016
4
 1 0.32511 0.32511 0.95937
4
 1 0.322214 0.322214 0.98913
4
 1 0.326421 0.326421 0.983757
4
 1 0.327966 0.327966 0.984697
4
 1 0.324475 0.324475 0.982763
4
 1 0.316764 0.316764 0.99509
4
 0.99942 0.311332 0.311332 1
4
 0.996171 0.308659 0.308659 1
4
 0.994102 0.310043 0.310043 1
4
 0.993657 0.306839 0.306839 1
4
 1 0.322006 0.322006 0.984696
4
 0.994718 0.305969 0.305969 1
4
 0.984277 0.276649 0.276649 1
4
 0.981518 0.27301 0.27301 1
4
 0.984167 0.278241 0.278241 1
4
 0.988651 0.288918 0.288918 1
4
 0.987487 0.284209 0.284209 1
4
 0.981461 0.281665 0.281665 1
4
 0.983778 0.284835 0.284835 1
4
 0.992824 0.290325 0.290325 1
4
 0.990707 0.289553 0.289553 1
4
 0.985384 0.275993 0.275993 1
4
 0.988042 0.281281 0.281281 1
4
 0.99238 0.283517 0.283517 1
4
 0.990321 0.279613 0.279613 1
4
 0.98616 0.273202 0.273202 1
4
 0.987544 0.275935 0.275935 1
4
 0.982401 0.2705 0.2705 1
4
 0.985381 0.28822 0.28822 1
4
 0.987762 0.291598 0.291598 1
4
 0.992321 0.292994 0.292994 1
4
 0.994943 0.296981 0.296981 1
4
 0.992268 0.285149 0.285149 1
4
 0.995336 0.289622 0.289622 1
4
 0.99327 0.288987 0.288987 1
4
 1 0.296072 0.296072 0.992016
4
 1 0.290754 0.290754 0.999284
4
 1 0.294405 0.294405 0.996203
4
 1 0.296339 0.296339 0.989624
4
 1 0.293254 0.293254 0.992183
4
 1 0.289939 0.289939 0.997153
4
 1 0.297352 0.297352 0.99302
4
 1 0.299306 0.299306 0.986462
4
 1 0.301357 0.301357 0.987571
4
 0.999705 0.291925 0.291925 1
4
 0.998753 0.287223 0.287223 1
4
 0.994556 0.283458 0.283458 1
4
 1 0.29966 0.29966 0.991739
4
 1 0.295643 0.295643 0.999285
4
 1 0.296457 0.296457 0.986627
4
 1 0.30163 0.30163 0.985189
4
 1 0.300328 0.300328 0.981269
4
 1 0.302442 0.302442 0.980773
4
 1 0.290054 0.290054 0.994134
4
 1 0.292098 0.292098 0.987957
4
 1 0.295356 0.295356 0.983971
4
 1 0.297201 0.297201 0.983806
4
 1 0.302738 0.302738 0.990348
4
 1 0.3062 0.3062 0.985412
4
 1 0.304515 0.304515 0.981876
4
 1 0.306889 0.306889 0.980829
4
 1 0.284771 0.284771 0.999619
4
 0.99668 0.283267 0.283267 1
4
 1 0.288796 0.288796 0.992906
4
 1 0.285934 0.285934 0.996089
4
 1 0.329721 0.329721 0.981275
4
 1 0.328991 0.328991 0.977535
4
 1 0.331192 0.331192 0.977535
4
 1 0.32621 0.32621 0.979348
4
 1 0.338621 0.338621 0.978141
4
 1 0.34323 0.34323 0.97655
4
 1 0.339562 0.339562 0.980011
4
 1 0.336576 0.336576 0.982324
4
 1 0.333455 0.333455 0.981331
4
 1 0.334944 0.334944 0.977591
4
 1 0.341158 0.341158 0.980727
4
 1 0.347996 0.347996 0.971137
4
 1 0.341129 0.341129 0.982987
4
 1 0.337483 0.337483 0.98647
4
 1 0.33276 0.33276 0.978469
4
 0.965984 0.28836 0.28836 1
4
 0.971478 0.291338 0.291338 1
4
 0.96783 0.286672 0.286672 1
4
 0.962249 0.283951 0.283951 1
4
 0.965005 0.301125 0.301125 1
4
 0.969294 0.30825 0.30825 1
4
 0.968533 0.305231 0.305231 1
4
 0.964195 0.290191 0.290191 1
4
 0.963869 0.293269 0.293269 1
4
 0.969242 0.296022 0.296022 1
4
 0.969787 0.294933 0.294933 1
4
 0.958526 0.287649 0.287649 1
4
 0.958581 0.28587 0.28587 1
4
 0.970496 0.293767 0.293767 1
4
 0.970387 0.29203 0.29203 1
4
 0.961168 0.284626 0.284626 1
4
 0.959281 0.28474 0.28474 1
4
 0.964356 0.296963 0.296963 1
4
 0.96799 0.302804 0.302804 1
4
 0.971202 0.304044 0.304044 1
4
 0.959548 0.293119 0.293119 1
4
 0.969623 0.297979 0.297979 1
4
 0.969677 0.299612 0.299612 1
4
 0.971094 0.302246 0.302246 1
4
 0.959441 0.291385 0.291385 1
4
 0.996961 0.278767 0.278767 1
4
 0.99478 0.278361 0.278361 1
4
 0.996177 0.281146 0.281146 1
4
 1 0.286778 0.286778 0.993408
4
 1 0.283936 0.283936 0.996592
4
 1 0.281757 0.281757 0.998104
4
 0.99188 0.274444 0.274444 1
4
 0.993721 0.273167 0.273167 1
4
 0.998979 0.27832 0.27832 1
4
 0.986382 0.268737 0.268737 1
4
 0.9911 0.276786 0.276786 1
4
 0.985939 0.271334 0.271334 1
4
 0.984224 0.268345 0.268345 1
4
 1 0.351041 0.351041 0.962451
4
 1 0.353831 0.353831 0.959645
4
 1 0.353694 0.353694 0.957062
4
 1 0.354837 0.354837 0.953575
4
 1 0.351994 0.351994 0.955504
4
 1 0.357657 0.357657 0.950795
4
 0.989982 0.300058 0.300058 1
4
 0.988981 0.301553 0.301553 1
4
 0.986875 0.293813 0.293813 1
4
 0.994049 0.299236 0.299236 1
4
 0.982176 0.291034 0.291034 1
4
 0.984218 0.294115 0.294115 1
4
 0.987484 0.298288 0.298288 1
4
 0.978215 0.280984 0.280984 1
4
 0.974924 0.279242 0.279242 1
4
 0.982894 0.287477 0.287477 1
4
 0.977226 0.282384 0.282384 1
4
 0.992432 0.296215 0.296215 1
4
 0.979588 0.285695 0.285695 1
4
 0.980578 0.288095 0.288095 1
4
 1 0.288386 0.288386 0.974621
4
 1 0.286839 0.286839 0.974894
4
 1 0.290831 0.290831 0.969708
4
 1 0.285844 0.285844 0.979613
4
 1 0.289822 0.289822 0.974402
4
 1 0.28496 0.28496 0.984079
4
 1 0.287967 0.287967 0.981762
4
 1 0.283431 0.283431 0.984355
4
 1 0.28129 0.28129 0.983802
4
 1 0.281881 0.281881 0.981044
4
 0.997075 0.272589 0.272589 1
4
 0.995174 0.27011 0.27011 1
4
 1 0.275775 0.275775 0.996702
4
 1 0.275876 0.275876 0.993461
4
 1 0.280318 0.280318 0.991511
4
 1 0.281645 0.281645 0.992459
4
 1 0.285537 0.285537 0.986514
4
 0.991492 0.269029 0.269029 1
4
 0.999597 0.275581 0.275581 1
4
 0.998643 0.276621 0.276621 1
4
 0.987214 0.266587 0.266587 1
4
 0.98605 0.267096 0.267096 1
4
 0.985332 0.264162 0.264162 1
4
 1 0.279415 0.279415 0.995137
4
 1 0.2782 0.2782 0.990954
4
 1 0.287949 0.287949 0.9899
4
 1 0.289689 0.289689 0.985463
4
 1 0.294075 0.294075 0.982756
4
 1 0.282908 0.282908 0.994579
4
 1 0.286818 0.286818 0.988622
4
 1 0.284617 0.284617 0.990121
4
 0.968981 0.253761 0.253761 1
4
 0.961124 0.249386 0.249386 1
4
 0.971923 0.257193 0.257193 1
4
 0.976958 0.258764 0.258764 1
4
 0.975806 0.259258 0.259258 1
4
 0.952741 0.244243 0.244243 1
4
 0.95424 0.246619 0.246619 1
4
 0.949856 0.243812 0.243812 1
4
 0.945281 0.24059 0.24059 1
4
 0.943743 0.238558 0.238558 1
4
 0.946768 0.242931 0.242931 1
4
 0.950869 0.247209 0.247209 1
4
 1 0.298679 0.298679 0.997884
4
 0.99651 0.294421 0.294421 1
4
 1 0.305233 0.305233 0.989459
4
 0.999985 0.298517 0.298517 1
4
 1 0.301786 0.301786 0.99738
4
 1 0.311747 0.311747 0.98276
4
 1 0.314495 0.314495 0.982926
4
 1 0.318191 0.318191 0.977313
4
 1 0.311445 0.311445 0.984694
4
 1 0.305237 0.305237 0.992409
4
 1 0.309418 0.309418 0.979949
4
 0.990868 0.317803 0.317803 1
4
 0.986483 0.312013 0.312013 1
4
 0.980793 0.309051 0.309051 1
4
 0.982226 0.311768 0.311768 1
4
 0.987257 0.317207 0.317207 1
4
 0.999248 0.3263 0.3263 1
4
 0.990868 0.31569 0.31569 1
4
 1 0.333732 0.333732 0.992749
4
 0.986927 0.307997 0.307997 1
4
 0.980739 0.305323 0.305323 1
4
 0.98129 0.3042 0.3042 1
4
 0.980794 0.306997 0.306997 1
4
 0.981732 0.302294 0.302294 1
4
 0.985709 0.303342 0.303342 1
4
 0.986928 0.302905 0.302905 1
4
 0.975577 0.29967 0.29967 1
4
 0.975083 0.302425 0.302425 1
4
 0.976016 0.296801 0.296801 1
4
 0.98008 0.299602 0.299602 1
4
 0.97997 0.29783 0.29783 1
4
 0.972242 0.290321 0.290321 1
4
 0.97651 0.293607 0.293607 1
4
 0.980576 0.296377 0.296377 1
4
 0.985267 0.300207 0.300207 1
4
 0.976562 0.306756 0.306756 1
4
 0.954555 0.271963 0.271963 1
4
 0.958798 0.276548 0.276548 1
4
 0.956863 0.271505 0.271505 1
4
 0.963926 0.28049 0.28049 1
4
 0.961117 0.275164 0.275164 1
4
 0.964252 0.278939 0.278939 1
4
 0.96198 0.277681 0.277681 1
4
 0.954072 0.273094 0.273094 1
4
 0.948943 0.26958 0.26958 1
4
 0.952146 0.268115 0.268115 1
4
 0.946336 0.267047 0.267047 1
4
 0.947187 0.265919 0.265919 1
4
 0.947877 0.272029 0.272029 1
4
 0.952572 0.27685 0.27685 1
4
 0.950702 0.276961 0.276961 1
4
 0.947823 0.276013 0.276013 1
4
 0.953161 0.274125 0.274125 1
4
 0.963439 0.281657 0.281657 1
4
 0.957883 0.278984 0.278984 1
4
 0.952733 0.275394 0.275394 1
4
 0.945433 0.268055 0.268055 1
4
 0.976889 0.314353 0.314353 1
4
 0.972292 0.30997 0.30997 1
4
 0.977602 0.316786 0.316786 1
4
 0.976122 0.311274 0.311274 1
4
 0.979361 0.312549 0.312549 1
4
 0.981452 0.318119 0.318119 1
4
 0.984378 0.318002 0.318002 1
4
 0.98637 0.321755 0.321755 1
4
 0.974753 0.308191 0.308191 1
4
 0.982998 0.314852 0.314852 1
4
 0.987089 0.324246 0.324246 1
4
 1 0.347266 0.347266 0.948766
4
 1 0.344427 0.344427 0.949618
4
 1 0.340706 0.340706 0.954965
4
 1 0.348103 0.348103 0.945416
4
 1 0.353998 0.353998 0.943454
4
 1 0.337075 0.337075 0.950257
4
 1 0.333569 0.333569 0.955554
4
 1 0.331113 0.331113 0.956305
4
 1 0.331765 0.331765 0.952767
4
 1 0.341527 0.341527 0.951593
4
 1 0.342329 0.342329 0.947807
4
 1 0.33863 0.33863 0.953143
4
 1 0.335108 0.335108 0.958457
4
 1 0.334723 0.334723 0.961907
4
 1 0.335895 0.335895 0.954643
4
 0.958692 0.27127 0.27127 1
4
 0.954878 0.26643 0.26643 1
4
 0.949584 0.263952 0.263952 1
4
 0.949477 0.265472 0.265472 1
4
 0.968919 0.284092 0.284092 1
4
 0.972843 0.288905 0.288905 1
4
 0.963006 0.282961 0.282961 1
4
 0.966636 0.282811 0.282811 1
4
 0.966095 0.278697 0.278697 1
4
 0.959123 0.270021 0.270021 1
4
 0.96941 0.280099 0.280099 1
4
 0.973172 0.287307 0.287307 1
4
 0.972572 0.283942 0.283942 1
4
 0.974594 0.286948 0.286948 1
4
 0.966963 0.281246 0.281246 1
4
 0.954772 0.263094 0.263094 1
4
 0.949853 0.256317 0.256317 1
4
 0.950066 0.258082 0.258082 1
4
 0.95338 0.258206 0.258206 1
4
 0.951988 0.259392 0.259392 1
4
 0.978542 0.291809 0.291809 1
4
 0.981788 0.29595 0.29595 1
4
 0.950599 0.26015 0.26015 1
4
 0.950011 0.262736 0.262736 1
4
 0.949265 0.260597 0.260597 1
4
 0.990032 0.324126 0.324126 1
4
 1 0.329954 0.329954 0.960719
4
 1 0.329461 0.329461 0.964665
4
 1 0.332019 0.332019 0.963421
4
 1 0.32817 0.32817 0.957917
4
 1 0.324558 0.324558 0.96754
4
 1 0.327035 0.327035 0.965423
4
 1 0.30708 0.30708 0.962496
4
 1 0.307199 0.307199 0.965094
4
 1 0.310294 0.310294 0.962443
4
 1 0.312612 0.312612 0.959259
4
 1 0.30078 0.30078 0.971672
4
 1 0.304363 0.304363 0.967209
4
 1 0.300897 0.300897 0.974295
4
 1 0.299212 0.299212 0.978627
4
 1 0.307549 0.307549 0.967156
4
 1 0.302777 0.302777 0.974132
4
 1 0.306288 0.306288 0.970365
4
 1 0.312969 0.312969 0.961309
4
 1 0.309374 0.309374 0.967699
4
 1 0.312619 0.312619 0.964987
4
 1 0.304573 0.304573 0.974679
4
 1 0.303201 0.303201 0.977968
4
 1 0.322396 0.322396 0.956303
4
 1 0.317786 0.317786 0.957538
4
 1 0.317431 0.317431 0.961202
4
 1 0.326662 0.326662 0.955016
4
 1 0.314955 0.314955 0.961795
4
 1 0.278886 0.278886 0.984962
4
 0.945702 0.253449 0.253449 1
4
 0.941146 0.250099 0.250099 1
4
 0.949001 0.253571 0.253571 1
4
 0.947615 0.254736 0.254736 1
4
 0.941357 0.251821 0.251821 1
4
 0.944587 0.255632 0.255632 1
4
 0.947828 0.25649 0.25649 1
4
 0.940036 0.252254 0.252254 1
4
 0.940674 0.237696 0.237696 1
4
 0.942418 0.241773 0.241773 1
4
 0.935985 0.23501 0.23501 1
4
 0.940779 0.239509 0.239509 1
4
 0.946289 0.243942 0.243942 1
4
 0.934462 0.233025 0.233025 1
4
 0.925064 0.229099 0.229099 1
4
 0.922004 0.228165 0.228165 1
4
 0.925272 0.228 0.228 1
4
 0.926311 0.23167 0.23167 1
4
 0.931318 0.235082 0.235082 1
4
 0.929595 0.231503 0.231503 1
4
 0.934356 0.235935 0.235935 1
4
 0.928237 0.234123 0.234123 1
4
 0.93793 0.240687 0.240687 1
4
 0.936299 0.238433 0.238433 1
4
 0.94099 0.24156 0.24156 1
4
 0.946501 0.246031 0.246031 1
4
 0.947458 0.248098 0.248098 1
4
 0.934567 0.234803 0.234803 1
4
 0.951349 0.250323 0.250323 1
4
 0.952418 0.253929 0.253929 1
4
 1 0.355938 0.355938 0.949247
4
 1 0.361004 0.361004 0.943509
4
 1 0.35793 0.35793 0.944834
4
 1 0.355062 0.355062 0.946745
4
 1 0.360116 0.360116 0.941022
4
 0.954123 0.285801 0.285801 1
4
 0.951288 0.283061 0.283061 1
4
 0.953641 0.282245 0.282245 1
4
 0.950754 0.281279 0.281279 1
4
 1 0.307928 0.307928 0.992576
4
 1 0.317883 0.317883 0.979236
4
 1 0.319188 0.319188 0.981604
4
 0.997013 0.297633 0.297633 1
4
 1 0.306717 0.306717 0.974187
4
 1 0.309108 0.309108 0.973149
4
 1 0.311337 0.311337 0.968189
4
 1 0.307715 0.307715 0.976433
4
 1 0.312351 0.312351 0.970421
4
 0.974923 0.282992 0.282992 1
4
 0.977938 0.288391 0.288391 1
4
 0.983223 0.29558 0.29558 1
4
 0.980474 0.265691 0.265691 1
4
 0.979924 0.262263 0.262263 1
4
 0.955572 0.280387 0.280387 1
4
 0.950808 0.279539 0.279539 1
4
 0.943683 0.264414 0.264414 1
4
 0.944638 0.261791 0.261791 1
4
 0.944003 0.258173 0.258173 1
4
 1 0.324073 0.324073 0.971514
4
 1 0.322939 0.322939 0.975998
4
 1 0.325404 0.325404 0.973863
4
 1 0.329082 0.329082 0.968138
4
 1 0.332023 0.332023 0.97474
4
 1 0.327029 0.327029 0.976547
4
 1 0.330726 0.330726 0.970806
4
 1 0.327931 0.327931 0.972607
1
 1

